comparadorAig_Java/satExpressions.cnf
c 1 n18
c 2 n26
c 5 n210
c 8 n24
p cnf 16 32
-3 1 0
-3 2 0
3 -1 -2 0
4 3 0
-4 -3 0
-6 4 0
-6 5 0
6 -4 -5 0
7 6 0
-7 -6 0
-9 4 0
-9 8 0
9 -4 -8 0
10 9 0
-10 -9 0
-11 7 0
-11 10 0
11 -7 -10 0
12 11 0
-12 -11 0
13 12 0
-13 -12 0
-14 12 0
-14 13 0
14 -12 -13 0
-15 13 0
-15 12 0
15 -13 -12 0
16 -14 0
16 -15 0
-16 14 15 0
-16 0

