comparadorAig_Java/satExpressions.txt
(!(!(!(!(n8&n6)&n4)&!(n6&n2)))|!(!(!(!(n8&n6)&n4)&!(n6&n2)))|!S)&((!(!(!(n8&n6)&n4)&!(n6&n2)))|(!(!(!(n8&n6)&n4)&!(n6&n2)))|!S)&((!(!(!(n8&n6)&n4)&!(n6&n2)))|!(!(!(!(n8&n6)&n4)&!(n6&n2)))|S)&(!(!(!(!(n8&n6)&n4)&!(n6&n2)))|(!(!(!(n8&n6)&n4)&!(n6&n2)))|S)